Minimize
x16 + x18 + x20 + x22 + x28 + x30 + x32 + x34 + x40 + x42 + x44 + x46 + x52 + x54 + x56 + x58 + x64 + x66 + x68 + x70 + x76 + x78 + x80 + x82 + x88 + x90 + x92 + x94 + x100 + x102 + x104 + x106 + x112 + x114 + x116 + x118 + x124 + x126 + x128 + x130 + x136 + x138 + x140 + x142 + x148 + x150 + x152 + x154 + x160 + x162 + x164 + x166 + x172 + x174 + x176 + x178 + x184 + x186 + x188 + x190 + x196 + x198 + x200 + x202 + 
Subject To
\BRANCH
x0 + x16 + x17 - 2 d0 >= 0
d0 - x0 >= 0
d0 - x16 >= 0
d0 - x17 >= 0
\BRANCH
x1 + x18 + x19 - 2 d1 >= 0
d1 - x1 >= 0
d1 - x18 >= 0
d1 - x19 >= 0
\BRANCH
x2 + x20 + x21 - 2 d2 >= 0
d2 - x2 >= 0
d2 - x20 >= 0
d2 - x21 >= 0
\BRANCH
x3 + x22 + x23 - 2 d3 >= 0
d3 - x3 >= 0
d3 - x22 >= 0
d3 - x23 >= 0
\Clefia S0
\M_0
x16 + x18 + x20 + x22 + x24 + x25 + x26 + x27 - 5 d4 >= 0
d4 - x16 >= 0
d4 - x18 >= 0
d4 - x20 >= 0
d4 - x22 >= 0
d4 - x24 >= 0
d4 - x25 >= 0
d4 - x26 >= 0
d4 - x27 >= 0
\XOR
x4 - x24 = 0
\XOR
x5 - x25 = 0
\XOR
x6 - x26 = 0
\XOR
x7 - x27 = 0
\BRANCH
x8 + x28 + x29 - 2 d5 >= 0
d5 - x8 >= 0
d5 - x28 >= 0
d5 - x29 >= 0
\BRANCH
x9 + x30 + x31 - 2 d6 >= 0
d6 - x9 >= 0
d6 - x30 >= 0
d6 - x31 >= 0
\BRANCH
x10 + x32 + x33 - 2 d7 >= 0
d7 - x10 >= 0
d7 - x32 >= 0
d7 - x33 >= 0
\BRANCH
x11 + x34 + x35 - 2 d8 >= 0
d8 - x11 >= 0
d8 - x34 >= 0
d8 - x35 >= 0
\Clefia S1
\M_1
x28 + x30 + x32 + x34 + x36 + x37 + x38 + x39 - 5 d9 >= 0
d9 - x28 >= 0
d9 - x30 >= 0
d9 - x32 >= 0
d9 - x34 >= 0
d9 - x36 >= 0
d9 - x37 >= 0
d9 - x38 >= 0
d9 - x39 >= 0
\XOR
x12 - x36 = 0
\XOR
x13 - x37 = 0
\XOR
x14 - x38 = 0
\XOR
x15 - x39 = 0
\Identity
\Identity
\Identity
\Identity
\Identity
\Identity
\Identity
\Identity
\Identity
\Identity
\Identity
\Identity
\Identity
\Identity
\Identity
\Identity
\BRANCH
x4 + x40 + x41 - 2 d10 >= 0
d10 - x4 >= 0
d10 - x40 >= 0
d10 - x41 >= 0
\BRANCH
x5 + x42 + x43 - 2 d11 >= 0
d11 - x5 >= 0
d11 - x42 >= 0
d11 - x43 >= 0
\BRANCH
x6 + x44 + x45 - 2 d12 >= 0
d12 - x6 >= 0
d12 - x44 >= 0
d12 - x45 >= 0
\BRANCH
x7 + x46 + x47 - 2 d13 >= 0
d13 - x7 >= 0
d13 - x46 >= 0
d13 - x47 >= 0
\Clefia S0
\M_0
x40 + x42 + x44 + x46 + x48 + x49 + x50 + x51 - 5 d14 >= 0
d14 - x40 >= 0
d14 - x42 >= 0
d14 - x44 >= 0
d14 - x46 >= 0
d14 - x48 >= 0
d14 - x49 >= 0
d14 - x50 >= 0
d14 - x51 >= 0
\XOR
x29 - x48 = 0
\XOR
x31 - x49 = 0
\XOR
x33 - x50 = 0
\XOR
x35 - x51 = 0
\BRANCH
x12 + x52 + x53 - 2 d15 >= 0
d15 - x12 >= 0
d15 - x52 >= 0
d15 - x53 >= 0
\BRANCH
x13 + x54 + x55 - 2 d16 >= 0
d16 - x13 >= 0
d16 - x54 >= 0
d16 - x55 >= 0
\BRANCH
x14 + x56 + x57 - 2 d17 >= 0
d17 - x14 >= 0
d17 - x56 >= 0
d17 - x57 >= 0
\BRANCH
x15 + x58 + x59 - 2 d18 >= 0
d18 - x15 >= 0
d18 - x58 >= 0
d18 - x59 >= 0
\Clefia S1
\M_1
x52 + x54 + x56 + x58 + x60 + x61 + x62 + x63 - 5 d19 >= 0
d19 - x52 >= 0
d19 - x54 >= 0
d19 - x56 >= 0
d19 - x58 >= 0
d19 - x60 >= 0
d19 - x61 >= 0
d19 - x62 >= 0
d19 - x63 >= 0
\XOR
x17 - x60 = 0
\XOR
x19 - x61 = 0
\XOR
x21 - x62 = 0
\XOR
x23 - x63 = 0
\Identity
\Identity
\Identity
\Identity
\Identity
\Identity
\Identity
\Identity
\Identity
\Identity
\Identity
\Identity
\Identity
\Identity
\Identity
\Identity
\BRANCH
x29 + x64 + x65 - 2 d20 >= 0
d20 - x29 >= 0
d20 - x64 >= 0
d20 - x65 >= 0
\BRANCH
x31 + x66 + x67 - 2 d21 >= 0
d21 - x31 >= 0
d21 - x66 >= 0
d21 - x67 >= 0
\BRANCH
x33 + x68 + x69 - 2 d22 >= 0
d22 - x33 >= 0
d22 - x68 >= 0
d22 - x69 >= 0
\BRANCH
x35 + x70 + x71 - 2 d23 >= 0
d23 - x35 >= 0
d23 - x70 >= 0
d23 - x71 >= 0
\Clefia S0
\M_0
x64 + x66 + x68 + x70 + x72 + x73 + x74 + x75 - 5 d24 >= 0
d24 - x64 >= 0
d24 - x66 >= 0
d24 - x68 >= 0
d24 - x70 >= 0
d24 - x72 >= 0
d24 - x73 >= 0
d24 - x74 >= 0
d24 - x75 >= 0
\XOR
x53 - x72 = 0
\XOR
x55 - x73 = 0
\XOR
x57 - x74 = 0
\XOR
x59 - x75 = 0
\BRANCH
x17 + x76 + x77 - 2 d25 >= 0
d25 - x17 >= 0
d25 - x76 >= 0
d25 - x77 >= 0
\BRANCH
x19 + x78 + x79 - 2 d26 >= 0
d26 - x19 >= 0
d26 - x78 >= 0
d26 - x79 >= 0
\BRANCH
x21 + x80 + x81 - 2 d27 >= 0
d27 - x21 >= 0
d27 - x80 >= 0
d27 - x81 >= 0
\BRANCH
x23 + x82 + x83 - 2 d28 >= 0
d28 - x23 >= 0
d28 - x82 >= 0
d28 - x83 >= 0
\Clefia S1
\M_1
x76 + x78 + x80 + x82 + x84 + x85 + x86 + x87 - 5 d29 >= 0
d29 - x76 >= 0
d29 - x78 >= 0
d29 - x80 >= 0
d29 - x82 >= 0
d29 - x84 >= 0
d29 - x85 >= 0
d29 - x86 >= 0
d29 - x87 >= 0
\XOR
x41 - x84 = 0
\XOR
x43 - x85 = 0
\XOR
x45 - x86 = 0
\XOR
x47 - x87 = 0
\Identity
\Identity
\Identity
\Identity
\Identity
\Identity
\Identity
\Identity
\Identity
\Identity
\Identity
\Identity
\Identity
\Identity
\Identity
\Identity
\BRANCH
x53 + x88 + x89 - 2 d30 >= 0
d30 - x53 >= 0
d30 - x88 >= 0
d30 - x89 >= 0
\BRANCH
x55 + x90 + x91 - 2 d31 >= 0
d31 - x55 >= 0
d31 - x90 >= 0
d31 - x91 >= 0
\BRANCH
x57 + x92 + x93 - 2 d32 >= 0
d32 - x57 >= 0
d32 - x92 >= 0
d32 - x93 >= 0
\BRANCH
x59 + x94 + x95 - 2 d33 >= 0
d33 - x59 >= 0
d33 - x94 >= 0
d33 - x95 >= 0
\Clefia S0
\M_0
x88 + x90 + x92 + x94 + x96 + x97 + x98 + x99 - 5 d34 >= 0
d34 - x88 >= 0
d34 - x90 >= 0
d34 - x92 >= 0
d34 - x94 >= 0
d34 - x96 >= 0
d34 - x97 >= 0
d34 - x98 >= 0
d34 - x99 >= 0
\XOR
x77 - x96 = 0
\XOR
x79 - x97 = 0
\XOR
x81 - x98 = 0
\XOR
x83 - x99 = 0
\BRANCH
x41 + x100 + x101 - 2 d35 >= 0
d35 - x41 >= 0
d35 - x100 >= 0
d35 - x101 >= 0
\BRANCH
x43 + x102 + x103 - 2 d36 >= 0
d36 - x43 >= 0
d36 - x102 >= 0
d36 - x103 >= 0
\BRANCH
x45 + x104 + x105 - 2 d37 >= 0
d37 - x45 >= 0
d37 - x104 >= 0
d37 - x105 >= 0
\BRANCH
x47 + x106 + x107 - 2 d38 >= 0
d38 - x47 >= 0
d38 - x106 >= 0
d38 - x107 >= 0
\Clefia S1
\M_1
x100 + x102 + x104 + x106 + x108 + x109 + x110 + x111 - 5 d39 >= 0
d39 - x100 >= 0
d39 - x102 >= 0
d39 - x104 >= 0
d39 - x106 >= 0
d39 - x108 >= 0
d39 - x109 >= 0
d39 - x110 >= 0
d39 - x111 >= 0
\XOR
x65 - x108 = 0
\XOR
x67 - x109 = 0
\XOR
x69 - x110 = 0
\XOR
x71 - x111 = 0
\Identity
\Identity
\Identity
\Identity
\Identity
\Identity
\Identity
\Identity
\Identity
\Identity
\Identity
\Identity
\Identity
\Identity
\Identity
\Identity
\BRANCH
x77 + x112 + x113 - 2 d40 >= 0
d40 - x77 >= 0
d40 - x112 >= 0
d40 - x113 >= 0
\BRANCH
x79 + x114 + x115 - 2 d41 >= 0
d41 - x79 >= 0
d41 - x114 >= 0
d41 - x115 >= 0
\BRANCH
x81 + x116 + x117 - 2 d42 >= 0
d42 - x81 >= 0
d42 - x116 >= 0
d42 - x117 >= 0
\BRANCH
x83 + x118 + x119 - 2 d43 >= 0
d43 - x83 >= 0
d43 - x118 >= 0
d43 - x119 >= 0
\Clefia S0
\M_0
x112 + x114 + x116 + x118 + x120 + x121 + x122 + x123 - 5 d44 >= 0
d44 - x112 >= 0
d44 - x114 >= 0
d44 - x116 >= 0
d44 - x118 >= 0
d44 - x120 >= 0
d44 - x121 >= 0
d44 - x122 >= 0
d44 - x123 >= 0
\XOR
x101 - x120 = 0
\XOR
x103 - x121 = 0
\XOR
x105 - x122 = 0
\XOR
x107 - x123 = 0
\BRANCH
x65 + x124 + x125 - 2 d45 >= 0
d45 - x65 >= 0
d45 - x124 >= 0
d45 - x125 >= 0
\BRANCH
x67 + x126 + x127 - 2 d46 >= 0
d46 - x67 >= 0
d46 - x126 >= 0
d46 - x127 >= 0
\BRANCH
x69 + x128 + x129 - 2 d47 >= 0
d47 - x69 >= 0
d47 - x128 >= 0
d47 - x129 >= 0
\BRANCH
x71 + x130 + x131 - 2 d48 >= 0
d48 - x71 >= 0
d48 - x130 >= 0
d48 - x131 >= 0
\Clefia S1
\M_1
x124 + x126 + x128 + x130 + x132 + x133 + x134 + x135 - 5 d49 >= 0
d49 - x124 >= 0
d49 - x126 >= 0
d49 - x128 >= 0
d49 - x130 >= 0
d49 - x132 >= 0
d49 - x133 >= 0
d49 - x134 >= 0
d49 - x135 >= 0
\XOR
x89 - x132 = 0
\XOR
x91 - x133 = 0
\XOR
x93 - x134 = 0
\XOR
x95 - x135 = 0
\Identity
\Identity
\Identity
\Identity
\Identity
\Identity
\Identity
\Identity
\Identity
\Identity
\Identity
\Identity
\Identity
\Identity
\Identity
\Identity
\BRANCH
x101 + x136 + x137 - 2 d50 >= 0
d50 - x101 >= 0
d50 - x136 >= 0
d50 - x137 >= 0
\BRANCH
x103 + x138 + x139 - 2 d51 >= 0
d51 - x103 >= 0
d51 - x138 >= 0
d51 - x139 >= 0
\BRANCH
x105 + x140 + x141 - 2 d52 >= 0
d52 - x105 >= 0
d52 - x140 >= 0
d52 - x141 >= 0
\BRANCH
x107 + x142 + x143 - 2 d53 >= 0
d53 - x107 >= 0
d53 - x142 >= 0
d53 - x143 >= 0
\Clefia S0
\M_0
x136 + x138 + x140 + x142 + x144 + x145 + x146 + x147 - 5 d54 >= 0
d54 - x136 >= 0
d54 - x138 >= 0
d54 - x140 >= 0
d54 - x142 >= 0
d54 - x144 >= 0
d54 - x145 >= 0
d54 - x146 >= 0
d54 - x147 >= 0
\XOR
x125 - x144 = 0
\XOR
x127 - x145 = 0
\XOR
x129 - x146 = 0
\XOR
x131 - x147 = 0
\BRANCH
x89 + x148 + x149 - 2 d55 >= 0
d55 - x89 >= 0
d55 - x148 >= 0
d55 - x149 >= 0
\BRANCH
x91 + x150 + x151 - 2 d56 >= 0
d56 - x91 >= 0
d56 - x150 >= 0
d56 - x151 >= 0
\BRANCH
x93 + x152 + x153 - 2 d57 >= 0
d57 - x93 >= 0
d57 - x152 >= 0
d57 - x153 >= 0
\BRANCH
x95 + x154 + x155 - 2 d58 >= 0
d58 - x95 >= 0
d58 - x154 >= 0
d58 - x155 >= 0
\Clefia S1
\M_1
x148 + x150 + x152 + x154 + x156 + x157 + x158 + x159 - 5 d59 >= 0
d59 - x148 >= 0
d59 - x150 >= 0
d59 - x152 >= 0
d59 - x154 >= 0
d59 - x156 >= 0
d59 - x157 >= 0
d59 - x158 >= 0
d59 - x159 >= 0
\XOR
x113 - x156 = 0
\XOR
x115 - x157 = 0
\XOR
x117 - x158 = 0
\XOR
x119 - x159 = 0
\Identity
\Identity
\Identity
\Identity
\Identity
\Identity
\Identity
\Identity
\Identity
\Identity
\Identity
\Identity
\Identity
\Identity
\Identity
\Identity
\BRANCH
x125 + x160 + x161 - 2 d60 >= 0
d60 - x125 >= 0
d60 - x160 >= 0
d60 - x161 >= 0
\BRANCH
x127 + x162 + x163 - 2 d61 >= 0
d61 - x127 >= 0
d61 - x162 >= 0
d61 - x163 >= 0
\BRANCH
x129 + x164 + x165 - 2 d62 >= 0
d62 - x129 >= 0
d62 - x164 >= 0
d62 - x165 >= 0
\BRANCH
x131 + x166 + x167 - 2 d63 >= 0
d63 - x131 >= 0
d63 - x166 >= 0
d63 - x167 >= 0
\Clefia S0
\M_0
x160 + x162 + x164 + x166 + x168 + x169 + x170 + x171 - 5 d64 >= 0
d64 - x160 >= 0
d64 - x162 >= 0
d64 - x164 >= 0
d64 - x166 >= 0
d64 - x168 >= 0
d64 - x169 >= 0
d64 - x170 >= 0
d64 - x171 >= 0
\XOR
x149 - x168 = 0
\XOR
x151 - x169 = 0
\XOR
x153 - x170 = 0
\XOR
x155 - x171 = 0
\BRANCH
x113 + x172 + x173 - 2 d65 >= 0
d65 - x113 >= 0
d65 - x172 >= 0
d65 - x173 >= 0
\BRANCH
x115 + x174 + x175 - 2 d66 >= 0
d66 - x115 >= 0
d66 - x174 >= 0
d66 - x175 >= 0
\BRANCH
x117 + x176 + x177 - 2 d67 >= 0
d67 - x117 >= 0
d67 - x176 >= 0
d67 - x177 >= 0
\BRANCH
x119 + x178 + x179 - 2 d68 >= 0
d68 - x119 >= 0
d68 - x178 >= 0
d68 - x179 >= 0
\Clefia S1
\M_1
x172 + x174 + x176 + x178 + x180 + x181 + x182 + x183 - 5 d69 >= 0
d69 - x172 >= 0
d69 - x174 >= 0
d69 - x176 >= 0
d69 - x178 >= 0
d69 - x180 >= 0
d69 - x181 >= 0
d69 - x182 >= 0
d69 - x183 >= 0
\XOR
x137 - x180 = 0
\XOR
x139 - x181 = 0
\XOR
x141 - x182 = 0
\XOR
x143 - x183 = 0
\Identity
\Identity
\Identity
\Identity
\Identity
\Identity
\Identity
\Identity
\Identity
\Identity
\Identity
\Identity
\Identity
\Identity
\Identity
\Identity
\BRANCH
x149 + x184 + x185 - 2 d70 >= 0
d70 - x149 >= 0
d70 - x184 >= 0
d70 - x185 >= 0
\BRANCH
x151 + x186 + x187 - 2 d71 >= 0
d71 - x151 >= 0
d71 - x186 >= 0
d71 - x187 >= 0
\BRANCH
x153 + x188 + x189 - 2 d72 >= 0
d72 - x153 >= 0
d72 - x188 >= 0
d72 - x189 >= 0
\BRANCH
x155 + x190 + x191 - 2 d73 >= 0
d73 - x155 >= 0
d73 - x190 >= 0
d73 - x191 >= 0
\Clefia S0
\M_0
x184 + x186 + x188 + x190 + x192 + x193 + x194 + x195 - 5 d74 >= 0
d74 - x184 >= 0
d74 - x186 >= 0
d74 - x188 >= 0
d74 - x190 >= 0
d74 - x192 >= 0
d74 - x193 >= 0
d74 - x194 >= 0
d74 - x195 >= 0
\XOR
x173 - x192 = 0
\XOR
x175 - x193 = 0
\XOR
x177 - x194 = 0
\XOR
x179 - x195 = 0
\BRANCH
x137 + x196 + x197 - 2 d75 >= 0
d75 - x137 >= 0
d75 - x196 >= 0
d75 - x197 >= 0
\BRANCH
x139 + x198 + x199 - 2 d76 >= 0
d76 - x139 >= 0
d76 - x198 >= 0
d76 - x199 >= 0
\BRANCH
x141 + x200 + x201 - 2 d77 >= 0
d77 - x141 >= 0
d77 - x200 >= 0
d77 - x201 >= 0
\BRANCH
x143 + x202 + x203 - 2 d78 >= 0
d78 - x143 >= 0
d78 - x202 >= 0
d78 - x203 >= 0
\Clefia S1
\M_1
x196 + x198 + x200 + x202 + x204 + x205 + x206 + x207 - 5 d79 >= 0
d79 - x196 >= 0
d79 - x198 >= 0
d79 - x200 >= 0
d79 - x202 >= 0
d79 - x204 >= 0
d79 - x205 >= 0
d79 - x206 >= 0
d79 - x207 >= 0
\XOR
x161 - x204 = 0
\XOR
x163 - x205 = 0
\XOR
x165 - x206 = 0
\XOR
x167 - x207 = 0
\Identity
\Identity
\Identity
\Identity
\Identity
\Identity
\Identity
\Identity
\Identity
\Identity
\Identity
\Identity
\Identity
\Identity
\Identity
\Identity
\Identity
\Identity
\Identity
\Identity
\Identity
\Identity
\Identity
\Identity
\Identity
\Identity
\Identity
\Identity
\Identity
\Identity
\Identity
\Identity
x0 + x1 + x2 + x3 + x4 + x5 + x6 + x7 + x8 + x9 + x10 + x11 + x12 + x13 + x14 + x15 >= 1

Binary
d0
d1
d2
d3
d4
d5
d6
d7
d8
d9
d10
d11
d12
d13
d14
d15
d16
d17
d18
d19
d20
d21
d22
d23
d24
d25
d26
d27
d28
d29
d30
d31
d32
d33
d34
d35
d36
d37
d38
d39
d40
d41
d42
d43
d44
d45
d46
d47
d48
d49
d50
d51
d52
d53
d54
d55
d56
d57
d58
d59
d60
d61
d62
d63
d64
d65
d66
d67
d68
d69
d70
d71
d72
d73
d74
d75
d76
d77
d78
d79
x0
x1
x2
x3
x4
x5
x6
x7
x8
x9
x10
x11
x12
x13
x14
x15
x16
x17
x18
x19
x20
x21
x22
x23
x24
x25
x26
x27
x28
x29
x30
x31
x32
x33
x34
x35
x36
x37
x38
x39
x40
x41
x42
x43
x44
x45
x46
x47
x48
x49
x50
x51
x52
x53
x54
x55
x56
x57
x58
x59
x60
x61
x62
x63
x64
x65
x66
x67
x68
x69
x70
x71
x72
x73
x74
x75
x76
x77
x78
x79
x80
x81
x82
x83
x84
x85
x86
x87
x88
x89
x90
x91
x92
x93
x94
x95
x96
x97
x98
x99
x100
x101
x102
x103
x104
x105
x106
x107
x108
x109
x110
x111
x112
x113
x114
x115
x116
x117
x118
x119
x120
x121
x122
x123
x124
x125
x126
x127
x128
x129
x130
x131
x132
x133
x134
x135
x136
x137
x138
x139
x140
x141
x142
x143
x144
x145
x146
x147
x148
x149
x150
x151
x152
x153
x154
x155
x156
x157
x158
x159
x160
x161
x162
x163
x164
x165
x166
x167
x168
x169
x170
x171
x172
x173
x174
x175
x176
x177
x178
x179
x180
x181
x182
x183
x184
x185
x186
x187
x188
x189
x190
x191
x192
x193
x194
x195
x196
x197
x198
x199
x200
x201
x202
x203
x204
x205
x206
x207
End